Set parameter TokenServer to value "srcc-license-srcf.stanford.edu,srcc-license-rcf.stanford.edu"
Gurobi Optimizer version 11.0.3 build v11.0.3rc0 (linux64 - "Ubuntu 20.04.5 LTS")

CPU model: Intel(R) Xeon(R) CPU E5-2637 v4 @ 3.50GHz, instruction set [SSE2|AVX|AVX2]
Thread count: 8 physical cores, 16 logical processors, using up to 16 threads

Optimize a model with 10365 rows, 383518 columns and 3451506 nonzeros
Model fingerprint: 0x67778b75
Variable types: 5021 continuous, 378497 integer (378497 binary)
Coefficient statistics:
  Matrix range     [1e-12, 2e+03]
  Objective range  [1e-01, 1e+00]
  Bounds range     [0e+00, 0e+00]
  RHS range        [2e-03, 2e+03]
Warning: Model contains large matrix coefficient range
         Consider reformulating model or setting NumericFocus parameter
         to avoid numerical issues.
Presolve removed 5035 rows and 216 columns (presolve time = 5s) ...
Presolve removed 5035 rows and 216 columns
Presolve time: 6.54s
Presolved: 5330 rows, 383302 columns, 3407663 nonzeros
Variable types: 4851 continuous, 378451 integer (378451 binary)
Deterministic concurrent LP optimizer: primal simplex, dual simplex, and barrier
Showing barrier log only...

Root barrier log...

Ordering time: 0.02s

Barrier statistics:
 AA' NZ     : 1.663e+05
 Factor NZ  : 3.572e+05 (roughly 160 MB of memory)
 Factor Ops : 3.516e+07 (less than 1 second per iteration)
 Threads    : 5

Barrier performed 0 iterations in 10.75 seconds (15.88 work units)
Barrier solve interrupted - model solved by another algorithm

Concurrent spin time: 0.34s (can be avoided by choosing Method=3)

Solved with dual simplex

Root simplex log...

Iteration    Objective       Primal Inf.    Dual Inf.      Time
     221   -4.4000020e-01   0.000000e+00   0.000000e+00     11s

Root relaxation: objective -4.400002e-01, 221 iterations, 2.54 seconds (2.19 work units)

    Nodes    |    Current Node    |     Objective Bounds      |     Work
 Expl Unexpl |  Obj  Depth IntInf | Incumbent    BestBd   Gap | It/Node Time

     0     0   -0.44000    0    4          -   -0.44000      -     -   14s
H    0     0                      -0.4400006   -0.44000  0.00%     -   17s
     0     0   -0.44000    0    4   -0.44000   -0.44000  0.00%     -   17s

Explored 1 nodes (2867 simplex iterations) in 17.27 seconds (20.30 work units)
Thread count was 16 (of 16 available processors)

Solution count 1: -0.440001 

Optimal solution found (tolerance 1.00e-04)
Best objective -4.400005999969e-01, best bound -4.400005999969e-01, gap 0.0000%

User-callback calls 2570, time in user-callback 0.01 sec
Gurobi Optimizer version 11.0.3 build v11.0.3rc0 (linux64 - "Ubuntu 20.04.5 LTS")

CPU model: Intel(R) Xeon(R) CPU E5-2637 v4 @ 3.50GHz, instruction set [SSE2|AVX|AVX2]
Thread count: 8 physical cores, 16 logical processors, using up to 16 threads

Optimize a model with 10365 rows, 383518 columns and 3451506 nonzeros
Model fingerprint: 0xd7719467
Variable types: 5021 continuous, 378497 integer (378497 binary)
Coefficient statistics:
  Matrix range     [1e-12, 2e+03]
  Objective range  [1e-01, 1e+00]
  Bounds range     [0e+00, 0e+00]
  RHS range        [2e-03, 2e+03]
Warning: Model contains large matrix coefficient range
         Consider reformulating model or setting NumericFocus parameter
         to avoid numerical issues.

MIP start from previous solve produced solution with objective 0.0333117 (0.58s)
Loaded MIP start from previous solve with objective 0.0333117

Presolve removed 5035 rows and 216 columns (presolve time = 5s) ...
Presolve removed 5035 rows and 216 columns
Presolve time: 6.89s
Presolved: 5330 rows, 383302 columns, 3407663 nonzeros
Variable types: 4851 continuous, 378451 integer (378451 binary)
Deterministic concurrent LP optimizer: primal simplex, dual simplex, and barrier
Showing barrier log only...

Root barrier log...

Ordering time: 0.02s

Barrier statistics:
 AA' NZ     : 1.663e+05
 Factor NZ  : 3.572e+05 (roughly 160 MB of memory)
 Factor Ops : 3.516e+07 (less than 1 second per iteration)
 Threads    : 6

                  Objective                Residual
Iter       Primal          Dual         Primal    Dual     Compl     Time
   0   2.94858591e+01 -1.94556367e+03  3.27e+06 4.00e-02  2.28e+00    10s
   1   6.77838362e-01 -1.08838220e+03  2.08e+05 6.38e-16  1.47e-01    10s

Barrier performed 1 iterations in 10.00 seconds (15.17 work units)
Barrier solve interrupted - model solved by another algorithm

Concurrent spin time: 0.36s (can be avoided by choosing Method=3)

Solved with dual simplex

Root simplex log...

Iteration    Objective       Primal Inf.    Dual Inf.      Time
     746   -4.4000013e-01   0.000000e+00   0.000000e+00     10s

Root relaxation: objective -4.400001e-01, 746 iterations, 2.27 seconds (2.37 work units)

    Nodes    |    Current Node    |     Objective Bounds      |     Work
 Expl Unexpl |  Obj  Depth IntInf | Incumbent    BestBd   Gap | It/Node Time

     0     0   -0.44000    0    2    0.03331   -0.44000  1421%     -   12s
H    0     0                      -0.4400007   -0.44000  0.00%     -   18s
     0     0   -0.44000    0    2   -0.44000   -0.44000  0.00%     -   18s

Explored 1 nodes (3138 simplex iterations) in 18.74 seconds (26.80 work units)
Thread count was 16 (of 16 available processors)

Solution count 2: -0.440001 0.0333117 

Optimal solution found (tolerance 1.00e-04)
Best objective -4.400006717479e-01, best bound -4.400006717479e-01, gap 0.0000%

User-callback calls 3152, time in user-callback 0.00 sec
Gurobi Optimizer version 11.0.3 build v11.0.3rc0 (linux64 - "Ubuntu 20.04.5 LTS")

CPU model: Intel(R) Xeon(R) CPU E5-2637 v4 @ 3.50GHz, instruction set [SSE2|AVX|AVX2]
Thread count: 8 physical cores, 16 logical processors, using up to 16 threads

Optimize a model with 10365 rows, 383518 columns and 3451506 nonzeros
Model fingerprint: 0x51b72d2e
Variable types: 5021 continuous, 378497 integer (378497 binary)
Coefficient statistics:
  Matrix range     [1e-12, 2e+03]
  Objective range  [1e-01, 1e+00]
  Bounds range     [0e+00, 0e+00]
  RHS range        [2e-03, 2e+03]
Warning: Model contains large matrix coefficient range
         Consider reformulating model or setting NumericFocus parameter
         to avoid numerical issues.

MIP start from previous solve produced solution with objective 0.0136629 (0.42s)
Loaded MIP start from previous solve with objective 0.0136629

Presolve removed 5035 rows and 216 columns (presolve time = 5s) ...
Presolve removed 5035 rows and 216 columns
Presolve time: 7.01s
Presolved: 5330 rows, 383302 columns, 3407663 nonzeros
Variable types: 4851 continuous, 378451 integer (378451 binary)
Deterministic concurrent LP optimizer: primal simplex, dual simplex, and barrier
Showing barrier log only...

Root barrier log...

Ordering time: 0.02s

Barrier statistics:
 AA' NZ     : 1.663e+05
 Factor NZ  : 3.572e+05 (roughly 160 MB of memory)
 Factor Ops : 3.516e+07 (less than 1 second per iteration)
 Threads    : 6

                  Objective                Residual
Iter       Primal          Dual         Primal    Dual     Compl     Time
   0   5.30439504e+01 -3.74007442e+03  3.27e+06 6.53e-02  4.39e+00    10s

Barrier performed 0 iterations in 9.87 seconds (15.10 work units)
Barrier solve interrupted - model solved by another algorithm

Concurrent spin time: 0.34s (can be avoided by choosing Method=3)

Solved with dual simplex

Root simplex log...

Iteration    Objective       Primal Inf.    Dual Inf.      Time
     612   -4.4000007e-01   0.000000e+00   0.000000e+00     10s

Root relaxation: objective -4.400001e-01, 612 iterations, 2.37 seconds (2.27 work units)

    Nodes    |    Current Node    |     Objective Bounds      |     Work
 Expl Unexpl |  Obj  Depth IntInf | Incumbent    BestBd   Gap | It/Node Time

     0     0   -0.44000    0    2    0.01366   -0.44000  3320%     -   14s
H    0     0                      -0.4400001   -0.44000  0.00%     -   14s

Explored 1 nodes (3881 simplex iterations) in 14.95 seconds (19.30 work units)
Thread count was 16 (of 16 available processors)

Solution count 2: -0.44 0.0136629 

Optimal solution found (tolerance 1.00e-04)
Best objective -4.400000666645e-01, best bound -4.400000666645e-01, gap 0.0000%

User-callback calls 1326, time in user-callback 0.00 sec
Gurobi Optimizer version 11.0.3 build v11.0.3rc0 (linux64 - "Ubuntu 20.04.5 LTS")

CPU model: Intel(R) Xeon(R) CPU E5-2637 v4 @ 3.50GHz, instruction set [SSE2|AVX|AVX2]
Thread count: 8 physical cores, 16 logical processors, using up to 16 threads

Optimize a model with 10365 rows, 383518 columns and 3451506 nonzeros
Model fingerprint: 0x6e3c4794
Variable types: 5021 continuous, 378497 integer (378497 binary)
Coefficient statistics:
  Matrix range     [1e-12, 2e+03]
  Objective range  [1e-01, 1e+00]
  Bounds range     [0e+00, 0e+00]
  RHS range        [2e-03, 2e+03]
Warning: Model contains large matrix coefficient range
         Consider reformulating model or setting NumericFocus parameter
         to avoid numerical issues.

MIP start from previous solve produced solution with objective 0.0836323 (0.41s)
Loaded MIP start from previous solve with objective 0.0836323

Presolve removed 5035 rows and 216 columns (presolve time = 5s) ...
Presolve removed 5035 rows and 216 columns
Presolve time: 6.12s
Presolved: 5330 rows, 383302 columns, 3407663 nonzeros
Variable types: 4851 continuous, 378451 integer (378451 binary)
Deterministic concurrent LP optimizer: primal simplex, dual simplex, and barrier
Showing barrier log only...

Root barrier log...

Ordering time: 0.02s

Barrier statistics:
 AA' NZ     : 1.658e+05
 Factor NZ  : 3.561e+05 (roughly 160 MB of memory)
 Factor Ops : 3.475e+07 (less than 1 second per iteration)
 Threads    : 6

Barrier performed 0 iterations in 9.16 seconds (15.24 work units)
Barrier solve interrupted - model solved by another algorithm

Concurrent spin time: 0.40s (can be avoided by choosing Method=3)

Solved with dual simplex

Root simplex log...

Iteration    Objective       Primal Inf.    Dual Inf.      Time
     292   -4.0001061e-01   0.000000e+00   0.000000e+00      9s

Root relaxation: objective -4.000106e-01, 292 iterations, 2.46 seconds (2.34 work units)
Total elapsed time = 11.50s (DegenMoves)

    Nodes    |    Current Node    |     Objective Bounds      |     Work
 Expl Unexpl |  Obj  Depth IntInf | Incumbent    BestBd   Gap | It/Node Time

     0     0   -0.40001    0    5    0.08363   -0.40001   578%     -   13s
H    0     0                      -0.4000106   -0.40001  0.00%     -   16s
     0     0   -0.40001    0    5   -0.40001   -0.40001  0.00%     -   16s

Explored 1 nodes (3871 simplex iterations) in 16.20 seconds (22.77 work units)
Thread count was 16 (of 16 available processors)

Solution count 2: -0.400011 0.0836323 

Optimal solution found (tolerance 1.00e-04)
Best objective -4.000106100009e-01, best bound -4.000106100009e-01, gap 0.0000%

User-callback calls 2068, time in user-callback 0.00 sec
Gurobi Optimizer version 11.0.3 build v11.0.3rc0 (linux64 - "Ubuntu 20.04.5 LTS")

CPU model: Intel(R) Xeon(R) CPU E5-2637 v4 @ 3.50GHz, instruction set [SSE2|AVX|AVX2]
Thread count: 8 physical cores, 16 logical processors, using up to 16 threads

Optimize a model with 10365 rows, 383518 columns and 3451506 nonzeros
Model fingerprint: 0x92d18d61
Variable types: 5021 continuous, 378497 integer (378497 binary)
Coefficient statistics:
  Matrix range     [1e-12, 2e+03]
  Objective range  [1e-01, 1e+00]
  Bounds range     [0e+00, 0e+00]
  RHS range        [2e-03, 2e+03]
Warning: Model contains large matrix coefficient range
         Consider reformulating model or setting NumericFocus parameter
         to avoid numerical issues.

MIP start from previous solve produced solution with objective 0.0360599 (0.47s)
Loaded MIP start from previous solve with objective 0.0360599

Presolve removed 5035 rows and 216 columns (presolve time = 5s) ...
Presolve removed 5035 rows and 216 columns
Presolve time: 6.06s
Presolved: 5330 rows, 383302 columns, 3407663 nonzeros
Variable types: 4851 continuous, 378451 integer (378451 binary)
Deterministic concurrent LP optimizer: primal simplex, dual simplex, and barrier
Showing barrier log only...

Root barrier log...

Ordering time: 0.02s

Barrier statistics:
 AA' NZ     : 1.644e+05
 Factor NZ  : 3.546e+05 (roughly 160 MB of memory)
 Factor Ops : 3.442e+07 (less than 1 second per iteration)
 Threads    : 6

Barrier performed 0 iterations in 8.96 seconds (15.16 work units)
Barrier solve interrupted - model solved by another algorithm

Concurrent spin time: 0.39s (can be avoided by choosing Method=3)

Solved with dual simplex

Root simplex log...

Iteration    Objective       Primal Inf.    Dual Inf.      Time
     406   -4.0001061e-01   0.000000e+00   0.000000e+00      9s

Root relaxation: objective -4.000106e-01, 406 iterations, 2.23 seconds (2.28 work units)
Total elapsed time = 11.59s (DegenMoves)

    Nodes    |    Current Node    |     Objective Bounds      |     Work
 Expl Unexpl |  Obj  Depth IntInf | Incumbent    BestBd   Gap | It/Node Time

     0     0   -0.40001    0    1    0.03606   -0.40001  1209%     -   13s
H    0     0                      -0.4000106   -0.40001  0.00%     -   16s
     0     0   -0.40001    0    1   -0.40001   -0.40001  0.00%     -   16s

Explored 1 nodes (3338 simplex iterations) in 16.09 seconds (22.78 work units)
Thread count was 16 (of 16 available processors)

Solution count 2: -0.400011 0.0360599 

Optimal solution found (tolerance 1.00e-04)
Best objective -4.000106100010e-01, best bound -4.000106100010e-01, gap 0.0000%

User-callback calls 2577, time in user-callback 0.00 sec
Gurobi Optimizer version 11.0.3 build v11.0.3rc0 (linux64 - "Ubuntu 20.04.5 LTS")

CPU model: Intel(R) Xeon(R) CPU E5-2637 v4 @ 3.50GHz, instruction set [SSE2|AVX|AVX2]
Thread count: 8 physical cores, 16 logical processors, using up to 16 threads

Optimize a model with 10365 rows, 383518 columns and 3451506 nonzeros
Model fingerprint: 0xcd0d3fce
Variable types: 5021 continuous, 378497 integer (378497 binary)
Coefficient statistics:
  Matrix range     [1e-12, 2e+03]
  Objective range  [1e-01, 1e+00]
  Bounds range     [0e+00, 0e+00]
  RHS range        [2e-03, 2e+03]
Warning: Model contains large matrix coefficient range
         Consider reformulating model or setting NumericFocus parameter
         to avoid numerical issues.

MIP start from previous solve produced solution with objective 0.329902 (0.52s)
Loaded MIP start from previous solve with objective 0.329902

Presolve removed 5035 rows and 216 columns (presolve time = 5s) ...
Presolve removed 5035 rows and 216 columns
Presolve time: 6.04s
Presolved: 5330 rows, 383302 columns, 3407663 nonzeros
Variable types: 4851 continuous, 378451 integer (378451 binary)
Deterministic concurrent LP optimizer: primal simplex, dual simplex, and barrier
Showing barrier log only...

Root barrier log...

Ordering time: 0.02s

Barrier statistics:
 AA' NZ     : 1.663e+05
 Factor NZ  : 3.572e+05 (roughly 160 MB of memory)
 Factor Ops : 3.516e+07 (less than 1 second per iteration)
 Threads    : 6

                  Objective                Residual
Iter       Primal          Dual         Primal    Dual     Compl     Time
   0   4.52582704e+01 -1.02019912e+03  4.43e+06 8.00e-07  1.64e+00     9s
   1   5.66663416e+00 -6.01123909e+02  2.51e+05 3.19e-16  9.38e-02     9s
   2   1.94055258e+00 -2.17380463e+02  2.45e+04 5.41e-16  9.33e-03     9s
   3  -7.35260498e-02 -4.85503247e+01  2.29e+03 3.33e-16  9.23e-04     9s

Barrier performed 3 iterations in 9.47 seconds (15.51 work units)
Barrier solve interrupted - model solved by another algorithm

Concurrent spin time: 0.50s (can be avoided by choosing Method=3)

Solved with dual simplex

Root simplex log...

Iteration    Objective       Primal Inf.    Dual Inf.      Time
    1108   -7.9217782e-01   0.000000e+00   0.000000e+00     10s

Root relaxation: objective -7.921778e-01, 1108 iterations, 2.76 seconds (2.66 work units)
Total elapsed time = 11.23s (DegenMoves)

    Nodes    |    Current Node    |     Objective Bounds      |     Work
 Expl Unexpl |  Obj  Depth IntInf | Incumbent    BestBd   Gap | It/Node Time

     0     0   -0.79218    0   98    0.32990   -0.79218   340%     -   12s
     0     0   -0.69105    0  131    0.32990   -0.69105   309%     -   24s
H    0     0                       0.2801537   -0.68628   345%     -   52s
     0     0   -0.68628    0  132    0.28015   -0.68628   345%     -   53s
     0     0   -0.65889    0  167    0.28015   -0.65889   335%     -   55s
H    0     0                       0.2160258   -0.65870   405%     -   73s
     0     0   -0.65609    0  176    0.21603   -0.65609   404%     -   74s
     0     0   -0.65007    0  191    0.21603   -0.65007   401%     -   76s
     0     0   -0.64768    0  195    0.21603   -0.64768   400%     -   78s
     0     0   -0.64433    0  193    0.21603   -0.64433   398%     -   81s
     0     0   -0.63906    0  194    0.21603   -0.63906   396%     -   93s
     0     0   -0.63796    0  189    0.21603   -0.63796   395%     -   95s
     0     0   -0.63709    0  190    0.21603   -0.63709   395%     -   98s
     0     0   -0.63404    0  188    0.21603   -0.63404   394%     -  100s
     0     0   -0.63238    0  187    0.21603   -0.63238   393%     -  102s
     0     0   -0.63047    0  186    0.21603   -0.63047   392%     -  104s
     0     0   -0.62985    0  186    0.21603   -0.62985   392%     -  106s
     0     0   -0.62890    0  189    0.21603   -0.62890   391%     -  108s
     0     0   -0.62794    0  187    0.21603   -0.62794   391%     -  110s
     0     0   -0.62722    0  187    0.21603   -0.62722   390%     -  112s
     0     0   -0.62636    0  186    0.21603   -0.62636   390%     -  122s
     0     0   -0.62572    0  186    0.21603   -0.62572   390%     -  123s
     0     0   -0.62472    0  187    0.21603   -0.62472   389%     -  125s
     0     0   -0.62377    0  187    0.21603   -0.62377   389%     -  126s
     0     0   -0.62337    0  189    0.21603   -0.62337   389%     -  129s
     0     0   -0.62306    0  187    0.21603   -0.62306   388%     -  130s
     0     0   -0.62149    0  187    0.21603   -0.62149   388%     -  133s
     0     0   -0.62149    0  187    0.21603   -0.62149   388%     -  134s
     0     0   -0.62149    0  187    0.21603   -0.62149   388%     -  137s
     0     0   -0.62149    0  187    0.21603   -0.62149   388%     -  138s
     0     0   -0.62136    0  189    0.21603   -0.62136   388%     -  149s
     0     0   -0.62136    0  188    0.21603   -0.62136   388%     -  151s
     0     0   -0.62136    0  189    0.21603   -0.62136   388%     -  154s
     0     0   -0.62136    0  188    0.21603   -0.62136   388%     -  155s
     0     0   -0.62123    0  182    0.21603   -0.62123   388%     -  160s
     0     2   -0.62123    0  182    0.21603   -0.62123   388%     -  165s
    15    24   -0.54303    4  182    0.21603   -0.55638   358%   900  171s
    64    74   -0.50500    7  174    0.21603   -0.53429   347%   762  175s
   122   137   -0.47536   11  172    0.21603   -0.53429   347%   574  180s
   185   199   -0.46064   15  163    0.21603   -0.53429   347%   573  185s
   243   262   -0.44554   20  156    0.21603   -0.53429   347%   593  190s
   323   344   -0.43150   25  124    0.21603   -0.53429   347%   529  195s
   398   423   -0.42529   29  115    0.21603   -0.53429   347%   505  201s
   471   477   -0.42372   33  105    0.21603   -0.53429   347%   475  205s
   582   558   -0.42369   40  104    0.21603   -0.53429   347%   437  212s
   633   587   -0.42351   43  107    0.21603   -0.53429   347%   422  215s
   715   673   -0.41260   51  100    0.21603   -0.53429   347%   408  220s
   820   783   -0.51125    6  152    0.21603   -0.53248   346%   380  228s
   884   850   -0.50471   16  144    0.21603   -0.53248   346%   361  231s
   961   891   -0.45624   24  123    0.21603   -0.53248   346%   340  235s
  1078  1016   -0.43053   46   79    0.21603   -0.51199   337%   327  244s
  1167  1025   -0.49710    6  147    0.21603   -0.51199   337%   313  248s
  1232  1074   -0.45661   13  135    0.21603   -0.51199   337%   310  252s
  1321  1150   -0.09777   17  133    0.21603   -0.51163   337%   299  258s
  1421  1245   -0.50971   10  150    0.21603   -0.51163   337%   289  262s
  1550  1285 infeasible   11         0.21603   -0.51147   337%   273  267s
  1663  1341   -0.48617    6  146    0.21603   -0.51147   337%   264  272s
  1759  1412   -0.48241   15  130    0.21603   -0.51147   337%   262  277s
  1867  1413   -0.47913   29  182    0.21603   -0.51147   337%   257  316s
  1869  1414   -0.31187   41  101    0.21603   -0.51147   337%   257  335s
